30
1 0 6
2 0 9
2 1 3
3 0 6
3 1 3
4 0 4
4 2 8
4 3 5
5 0 10
5 1 9
5 2 8
5 3 2
5 4 5
6 0 8
6 1 8
6 3 3
6 5 6
7 1 5
7 2 7
7 4 4
7 6 1
8 0 5
8 1 10
8 2 6
8 4 1
8 5 7
8 6 5
8 7 2
9 0 8
9 2 3
9 3 5
9 4 1
9 5 2
9 6 5
9 7 10
9 8 7
10 0 7
10 1 2
10 2 7
10 3 3
10 4 6
10 6 7
10 7 8
10 8 6
10 9 6
11 0 1
11 1 10
11 2 1
11 3 10
11 5 10
11 6 6
11 7 10
11 8 5
11 10 6
12 0 9
12 1 4
12 2 2
12 4 8
12 5 5
12 6 2
12 7 6
12 8 10
12 10 5
13 0 2
13 1 3
13 2 5
13 4 6
13 5 1
13 10 10
13 12 6
14 0 4
14 1 7
14 2 7
14 3 3
14 5 1
14 6 4
14 7 10
14 8 6
14 9 4
14 10 10
14 13 4
15 0 9
15 1 6
15 2 10
15 3 1
15 4 4
15 5 2
15 6 10
15 7 7
15 8 10
15 9 10
15 10 3
15 11 9
15 12 4
15 13 4
15 14 10
16 0 7
16 1 4
16 2 8
16 3 3
16 4 10
16 5 6
16 6 8
16 7 4
16 8 4
16 9 10
16 10 6
16 11 1
16 12 2
16 13 2
16 14 4
16 15 7
17 0 9
17 2 4
17 4 7
17 5 8
17 6 3
17 7 7
17 8 5
17 9 9
17 10 4
17 11 2
17 12 10
17 15 2
17 16 8
18 0 8
18 2 9
18 3 3
18 4 7
18 5 8
18 6 8
18 7 8
18 8 10
18 9 1
18 10 4
18 13 7
18 15 1
18 17 7
19 0 10
19 1 1
19 2 1
19 3 6
19 4 2
19 5 3
19 6 10
19 8 1
19 9 3
19 10 7
19 11 3
19 14 8
19 15 5
19 16 8
19 17 6
20 1 8
20 2 3
20 3 2
20 4 4
20 5 10
20 6 3
20 7 4
20 9 5
20 10 8
20 11 5
20 12 4
20 13 10
20 14 10
20 18 1
21 0 9
21 1 3
21 3 2
21 4 6
21 5 7
21 6 4
21 7 7
21 9 8
21 10 10
21 11 6
21 12 9
21 13 3
21 14 10
21 15 1
21 16 2
21 17 3
21 18 10
21 19 7
22 0 3
22 1 1
22 3 3
22 6 4
22 7 7
22 8 6
22 9 9
22 10 6
22 11 1
22 13 5
22 14 7
22 15 3
22 16 10
22 17 7
22 18 1
22 19 10
22 20 1
22 21 3
23 1 7
23 4 4
23 5 4
23 6 10
23 7 2
23 8 1
23 11 5
23 12 5
23 13 1
23 14 6
23 15 6
23 16 8
23 17 10
23 18 7
23 20 7
23 21 1
23 22 3
24 0 2
24 1 10
24 2 7
24 3 3
24 4 5
24 5 10
24 7 1
24 10 2
24 11 8
24 12 3
24 13 10
24 14 10
24 15 4
24 16 6
24 17 1
24 18 7
24 19 2
24 20 3
24 21 8
24 22 6
24 23 3
25 1 7
25 2 5
25 3 4
25 4 5
25 5 7
25 6 1
25 7 7
25 8 7
25 10 1
25 11 1
25 12 3
25 13 1
25 14 8
25 15 7
25 16 2
25 17 10
25 18 8
25 20 7
25 21 9
25 22 2
25 23 3
25 24 7
26 0 4
26 1 6
26 2 10
26 3 9
26 4 10
26 5 7
26 6 4
26 7 9
26 8 9
26 9 1
26 10 8
26 11 8
26 13 10
26 14 3
26 15 2
26 16 10
26 17 9
26 18 4
26 19 2
26 20 7
26 22 2
26 24 9
26 25 2
27 0 6
27 1 5
27 3 10
27 4 7
27 8 6
27 10 2
27 11 2
27 12 9
27 14 5
27 15 3
27 17 3
27 18 1
27 20 6
27 21 2
27 22 1
27 23 8
27 24 8
27 25 4
27 26 8
28 0 1
28 1 1
28 2 2
28 3 9
28 4 1
28 6 2
28 7 8
28 8 3
28 10 4
28 14 9
28 15 7
28 16 6
28 17 4
28 18 10
28 19 2
28 20 2
28 21 5
28 22 10
28 24 6
28 25 4
28 26 5
28 27 2
29 2 9
29 3 6
29 4 2
29 6 3
29 7 10
29 8 10
29 9 10
29 10 6
29 12 4
29 14 8
29 15 2
29 16 1
29 17 4
29 18 6
29 19 3
29 20 7
29 21 5
29 22 4
29 23 6
29 24 9
29 25 8
29 26 8
